Reproduction of the Original Problem/Instances/S2-5/S2-10-5-1-l.txt
     200       5    0.10
       2       2       3       1       2      11       6       0      16       6       3
       1       3       1       2       2      14       8      13       5       8       2
       1       2       3       3       3       9      10       6       6      16       2
       2       1       3       2       3       4       4       7      11      12       2
       1       3       1       2       1       1      12      12      13       0       3
       1       1       3       1       2      15       5       5       7       5       2
       3       2       1       3       1      13       0       0      16       5       3
       2       3       3       3       1       4       2       5      13       0       3
       1       1       1       3       3       7      14      11       7      11       3
       3       2       2       2       1      11      16       5       1       8       2
       3       1       1       3       2       1      10      10      10      13       2
       1       3       2       2       2       2       4      12      10       2       3
       1       2       1       3       2       8       3       3      15      13       2
       1       3       2       3       1      11       1      10       8       3       3
       3       3       2       2       3      10       2      13       2       0       2
       2       1       1       3       1      14      15      12      11      12       3
       2       1       1       1       1       1       2      14       7       9       3
       3       2       1       1       1      15       5      16       8      15       3
       3       1       1       2       1       2      15       4       7      13       3
       3       1       3       2       1       8      11       0       8       5       3
       3       2       2       1       2      12       5      13       0      14       3
       3       1       1       2       1      15       5       2       3       4       2
       2       2       1       2       3       7      16       7       5       0       2
       2       1       2       3       1       9      11      15       7      10       3
       3       3       2       1       1      13      16      15       1      13       3
       2       3       3       1       3      11       0       4      16      12       2
       3       2       2       1       3       5      15       7      13       3       3
       1       3       1       2       3       7      12      12       9      12       3
       2       3       3       3       2       4       6       9      16       2       3
       3       2       2       1       1       7       9       1      11       9       3
       2       2       1       1       1       5       4      10       9       7       3
       1       2       1       1       1       3      10      11       9       4       3
       2       1       1       3       1       1      12       6       8       0       2
       3       3       3       3       2      11      10       1       7       0       3
       3       2       1       3       3       3       8      16       0       9       2
       1       3       1       3       2       1      10      13       6       4       2
       1       2       2       1       3      12       0      10       2       7       2
       3       1       3       3       2      16       6       9      13       3       2
       3       1       3       1       3       7      14      14      13       8       3
       1       1       1       2       1      14      15       5       4       7       3
       3       2       1       2       2      14      15      15       4       7       3
       1       1       3       3       3       1       3       4       9      16       3
       2       2       1       2       3      10      14       1      12      16       2
       2       2       1       3       2      16      14       9       4       1       3
       2       3       3       2       1      10       3       6      13      16       2
       1       2       3       3       3       5      15       7      10      16       3
       3       1       1       3       2      11      15       0      10       1       3
       1       2       1       2       1       6       7       4       5      11       2
       3       1       1       1       3       8      11      11       1       8       2
       3       1       2       3       3       9       8       0       1       4       3
       2       2       2       2       3       6      16      12       1       7       3
       3       1       1       1       1       7       2       0       9      11       2
       3       3       2       3       1      14       2       8       3      14       3
       1       3       2       3       1       2       4      16      12      13       3
       2       3       1       2       1      16      11       9       6      13       3
       1       2       3       3       1      15      12       3       5      15       3
       3       2       2       1       1      15      11       2      14       1       2
       2       3       2       1       1       8       3       7       3       6       2
       2       3       2       1       3       6      12       9       8      16       2
       1       1       3       2       3       1       0      12       1       5       2
       1       2       3       2       2       2      14       0      11       6       3
       2       2       2       3       2       6       2       8      15       0       3
       2       1       3       1       3       9       0       1      10      16       3
       2       1       2       2       2       9      16       6       0       3       3
       1       3       1       3       1      13      12       8       6       0       3
       3       3       1       1       3       0       5       0       1      13       2
       3       1       2       2       2       4      10      11      14       3       2
       1       2       1       2       1       2       2      12      16      12       2
       1       1       1       1       3      13       1       3      12      14       3
       3       1       1       2       2       5       3       4       5       0       2
       3       1       1       1       3      14       8       3       1      11       3
       3       1       3       2       2       3      16       7       3       4       3
       3       3       3       2       2       9       4       9      11       8       3
       3       2       3       1       3       9      11       1       3       3       2
       3       3       3       1       3      14       2      12      11       2       2
       2       1       2       3       3      10      13      10       2      11       3
       1       1       2       3       2       9      14       4       9      16       2
       2       1       2       1       3       6      16       5       1       4       2
       2       2       1       1       1       9       0       7       4       0       3
       3       3       2       1       1       4      10       0       0       9       2
       1       2       2       1       2       1      16       9      12      13       2
       1       2       1       1       2      11      13       3       9       5       2
       2       3       3       3       2       3      14       4      15       2       2
       3       1       1       3       2      16       0      15       1       1       3
       2       2       1       2       2       1      15       0       5      14       3
       3       2       2       1       2       9       4       4       0       9       3
       2       3       3       1       3       6       3      12       7      12       2
       1       2       1       1       3      16       8      12       9       6       2
       1       1       3       3       3      10      14      10       8       0       2
       2       3       3       2       2       8      10       2       5       5       3
       3       1       1       1       3       5       6       3      12      10       3
       3       3       3       1       2       6      10       3       5       7       2
       3       3       2       2       1       8       7       9      10      10       3
       3       1       2       2       2       7      12       9       5       5       2
       1       2       1       2       2       7       3       0       6      11       3
       3       2       2       1       1       4       6       5       6      16       2
       3       2       3       3       2       4       6       7      11       1       2
       3       1       1       3       3       8       4      16      14       6       3
       1       2       3       3       3      15      16      16       5       1       2
       3       3       1       2       2      10      12      11       3      14       3
       2       1       3       1       3       4       2       1       5       4       2
       3       2       1       2       3       9       9       9       9       5       3
       1       1       3       3       1       4       4       6      10       2       2
       3       2       1       1       1      15      15       4      16      11       2
       2       3       1       1       3       1      13       6      10      12       2
       2       1       2       1       1      12       1       8       8       2       2
       2       1       2       1       3      10      14      14       8      12       2
       1       2       1       1       3      11       3      10       9      11       3
       2       1       1       2       2      12      13       9       4       5       2
       3       1       2       2       1       2      14       6       7       2       2
       3       3       3       2       3       7      10       5       6       2       3
       3       3       1       3       3      16       5       2      10       4       3
       2       1       1       3       2       0      15       6      12       5       3
       1       1       2       3       3       3       1       4       5       5       3
       1       1       1       1       2       1      15       8       1      10       2
       2       2       3       2       3       4      16       7      15       3       2
       2       2       2       2       3       4       6      15       7       4       3
       2       3       2       2       2       0      15      16      12      13       3
       3       2       2       2       3      13      10      14      11       0       2
       3       1       2       2       2       4       9       3      14      12       2
       3       3       1       1       2       0       2       4      16       9       3
       3       2       1       3       1      11       2      11       2      10       2
       3       1       2       2       2       9       0       5       8      16       3
       1       3       2       2       2       0       8       7      15       4       3
       3       3       3       1       3       3      12       1      15      15       3
       3       3       2       2       3      16       0      13      16       6       2
       1       3       3       3       1      11       2       6       4       6       2
       2       3       3       3       1       2       0       0       7       0       3
       1       2       1       1       1       7       7      16      10      12       3
       1       1       2       2       2       7       6      10      16       2       3
       2       2       2       1       2       7       8       4      12       9       2
       3       1       2       1       3      15       1       3       1       0       3
       1       2       1       3       2       4       5       4       5       8       3
       2       3       2       3       2       2       3      15      11       5       2
       1       2       3       3       1       4       0      14       9       9       2
       1       2       3       3       1       3       0       9       7      13       2
       2       3       2       2       1       6       3      12      10      16       3
       1       2       2       3       1       5       8      11       9       2       3
       3       3       3       1       3      12      10      16       8      14       3
       3       2       1       2       2       8      12       1       6       7       2
       1       1       3       2       2       2      12       7      14      15       2
       3       3       1       1       2       7      13      10       8      14       3
       1       1       3       3       1      13      16       9       4       1       2
       2       1       1       2       3      11      15       3      11       0       2
       2       3       1       3       2       0      11      14       2       2       3
       1       1       2       1       2      14      11       0      13      16       3
       1       1       2       3       2       1       0      13       6      15       2
       2       2       1       3       1       1      11       8       2      14       2
       3       1       3       2       2       7      11       2       7      15       2
       2       2       2       3       1       2       0      11      14      11       3
       1       1       2       3       1       2      11       8      15       7       2
       2       1       1       2       2       0      11       1       5      15       3
       1       3       3       2       2       8       3       1       6      10       3
       2       1       2       2       3       0      14      10       0      13       3
       3       3       3       2       3      14      15       5       4       9       2
       3       1       1       1       1       8      14       5       1       3       2
       1       3       2       3       1      15       8       2      12       8       3
       1       3       2       3       3       2      11      16       6       1       3
       3       3       2       3       1       8      16       1       7       5       2
       3       3       3       3       3       8      10       0       2      11       2
       3       2       2       3       1       3       0       4       9       0       3
       1       1       3       3       1       8      10       2       8       7       3
       2       1       3       3       2       1      15       1       7       4       2
       2       3       3       3       3      13      11       0       4       7       2
       1       3       2       3       1      11       7      14       1       6       3
       3       2       1       2       3      15       5       9       4      16       3
       2       2       1       2       1      11       4      11      11      12       2
       1       3       2       1       1       2      15       2      15       6       3
       3       1       1       3       1       8       6       7       6      13       2
       1       1       2       3       2       1       0       4       8      14       2
       3       2       1       2       2       8       0       2       1       2       3
       3       3       2       1       1       2       5      15       3      13       2
       1       1       1       3       3      14       2      12       0       9       2
       1       1       1       3       1       5       5       3       6       3       2
       1       2       3       2       2      15       5      13      11      13       3
       2       1       1       2       1       7       6       8      13      10       3
       3       1       1       1       2      11      10       6       2      15       2
       1       2       1       1       3       1       5       9       7      16       2
       1       2       2       1       2      13       5      16       7       6       3
       3       2       2       2       1       1       8       9       7      10       2
       3       1       2       3       2      11      16      15      12       0       2
       2       2       1       1       1      15      12      10       1      13       3
       3       2       3       2       2       5       2       6      11       3       2
       3       2       3       2       2      14       0      13       6      16       3
       3       2       2       2       1       7      11       9       0       7       2
       1       3       2       2       3       2       9      13       0      13       3
       3       1       3       3       1       1      14      14       8      15       3
       2       2       2       3       3       8      11      16       4      10       2
       1       3       2       2       2      13      10      12       0       3       3
       2       2       1       3       1       7       2       1      11      11       3
       2       3       2       2       1       3       9       1      12      15       3
       3       3       2       3       1      11       3      14       2       8       3
       2       2       3       1       3       7      14       2       7       3       3
       2       1       3       3       3       7       7      14      14       6       3
       3       3       1       3       1      11      13      10       4       4       3
       1       2       1       2       1      11      14       5      16       5       2
       2       2       1       1       1      15      10      15       7      16       2
       2       2       2       1       2       0       6       6       5       3       3
       2       3       2       2       2       4       1       5      10       5       3
       3       2       3       3       1      15       7       6      10       6       2
     119     150     137     179     112
     247     293     260     368     217
     539     581     599     794     370