Reproduction of the Original Problem/results-log/S2-5/S2-10-5-1-l.log
CPXPARAM_Read_DataCheck                          1
Found incumbent of value 0.000000 after 0.00 sec. (0.03 ticks)
Tried aggregator 1 time.
MIP Presolve modified 1 coefficients.
Reduced MIP has 216 rows, 1005 columns, and 5015 nonzeros.
Reduced MIP has 1005 binaries, 0 generals, 0 SOSs, and 0 indicators.
Presolve time = 0.00 sec. (1.88 ticks)
Probing time = 0.00 sec. (1.42 ticks)
Tried aggregator 1 time.
Reduced MIP has 216 rows, 1005 columns, and 5015 nonzeros.
Reduced MIP has 1005 binaries, 0 generals, 0 SOSs, and 0 indicators.
Presolve time = 0.00 sec. (2.26 ticks)
Probing time = 0.00 sec. (1.42 ticks)
Clique table members: 1000.
MIP emphasis: balance optimality and feasibility.
MIP search method: dynamic search.
Parallel mode: deterministic, using up to 4 threads.
Root relaxation solution time = 0.02 sec. (3.06 ticks)

        Nodes                                         Cuts/
   Node  Left     Objective  IInf  Best Integer    Best Bound    ItCnt     Gap

*     0+    0                            0.0000     5974.0000              --- 
      0     0     3262.0400     5        0.0000     3262.0400      283     --- 
*     0+    0                         1468.0000     3262.0400           122.21%
      0     0     2471.4188   229     1468.0000     Cuts: 154      585   68.35%
*     0+    0                         1927.0000     2471.4188            28.25%
      0     0        cutoff           1927.0000     1927.0000      840    0.00%
Elapsed time = 0.20 sec. (119.66 ticks, tree = 0.01 MB, solutions = 3)

Clique cuts applied:  291
Cover cuts applied:  4
Implied bound cuts applied:  1
Mixed integer rounding cuts applied:  5
Zero-half cuts applied:  3

Root node processing (before b&c):
  Real time             =    0.20 sec. (119.73 ticks)
Parallel b&c, 4 threads:
  Real time             =    0.00 sec. (0.00 ticks)
  Sync time (average)   =    0.00 sec.
  Wait time (average)   =    0.00 sec.
                          ------------
Total (root+branch&cut) =    0.20 sec. (119.73 ticks)
